46
28
0 30 32 36 39 40 41 42 45
1 31 32 34 36 37 38 39 41 42
2 31 32 36 37 38 39 41 43 44
3 29 32 36 38 39 40 41 42 43
4 29 30 33 34 36 38 39 40 41 44
5 33 34 36 40 41 43
6 29 30 31 32 41 42
7 33 34 36 37 40 42 43 44
8 29 31 32 33 34 36 39 40 43
9 29 32 34 36 37 39 40 41 43
10 29 31 32 33 35 36 39 40 41 42 44
11 33 34 36 39 41 42 43 44
12 31 33 36 38 40 42 43
13 29 31 33 34 38
14 30 32 33 34 37 40 41
15 29 31 33 36 38 40 42 44
16 28 39 41 44
17 29 30 32 34 38 39 42
18 32 33 36 41 42
19 29 30 31 39 44
20 29 31 33 39 41 43
21 32
22 37 40
23 37 39
24 31 42 45
25 29 30 32 44
26
27
